9
0 100 98 35 71 14 74 33 8 
51 0 7 17 97 98 54 1 29 
29 62 0 23 12 30 69 7 29 
12 70 64 0 15 53 93 93 25 
57 24 79 77 0 40 44 69 66 
57 60 81 20 25 0 62 77 97 
34 41 53 14 46 14 0 59 87 
14 45 82 7 14 72 23 0 42 
32 64 88 84 12 71 100 58 0 
